%%% static parameters %%%
timespan = 1;
Clients_N = [500];
Demand_W = [20];
Lt0 = [4];
Lt1 = [4];
SS_ = [0.85];
DS_D = [6];
K = [200];
MA = [500];
HC = [0.05];
%%% dynamic parameters %%%
lost_ratio_sales_ret_th = 0.0005270776505782242;
lost_ratio_sales_ret_w = 6;
lost_ratio_sales_dis_th = 0.00048656880211960543;
lost_ratio_sales_dis_w = 74;
lost_ratio_sales_fac_th = 8.698669031049278e-05;
lost_ratio_sales_fac_w = 75;
stock_customer_MA_mean_relative_th = 0.023161091148133806;
stock_customer_MA_mean_relative_w = 6;
stock_distributor_MA_mean_relative_th = 0.26717744620799244;
stock_distributor_MA_mean_relative_w = 71;
stock_retailer_MA_mean_relative_th = 0.09227277072496354;
stock_retailer_MA_mean_relative_w = 17;
stock_factory_MA_mean_relative_th = 0.4240678635383719;
stock_factory_MA_mean_relative_w = 7;
